(set-logic QF_S)
(declare-fun var0 () String)
(assert (str.in.re var0 (re.++ (re.* (re.+ (str.to.re "000"))) (re.++ (re.* (re.union (str.to.re "1") (str.to.re "222"))) (re.++ (re.+ (re.+ (str.to.re "33"))) (re.++ (re.union (re.+ (str.to.re "4")) (re.+ (str.to.re "5"))) (re.++ (re.+ (re.union (str.to.re "66") (str.to.re "777"))) (re.++ (re.union (re.* (str.to.re "8")) (re.* (str.to.re "99"))) (re.++ (re.+ (re.+ (str.to.re "aa"))) (re.++ (re.* (re.+ (str.to.re "b"))) (re.++ (re.* (re.* (str.to.re "cc"))) (re.++ (re.union (re.* (str.to.re "ddd")) (re.* (str.to.re "e"))) (re.++ (re.+ (re.+ (str.to.re "fff"))) (re.++ (re.union (re.union (str.to.re "gg") (str.to.re "hhh")) (re.union (str.to.re "ii") (str.to.re "jjj"))) (re.++ (re.union (re.union (str.to.re "kk") (str.to.re "ll")) (re.union (str.to.re "mm") (str.to.re "n"))) (re.++ (re.union (re.union (str.to.re "ooo") (str.to.re "ppp")) (re.union (str.to.re "qq") (str.to.re "rr"))) (re.++ (re.union (re.+ (str.to.re "s")) (re.+ (str.to.re "tt"))) (re.++ (re.union (re.+ (str.to.re "uuu")) (re.+ (str.to.re "vv"))) (re.++ (re.+ (re.+ (str.to.re "ww"))) (re.++ (re.* (re.* (str.to.re "xx"))) (re.+ (re.+ (str.to.re "yy")))))))))))))))))))))))
(check-sat)